Iteraciones:   267 

Costo         Vehículos     Tiempo [seg]
 1542,75       20            2,999 
 1542,75       20            3,999 
 1520,61       20            4,999 
 1520,61       20            5,999 
 1489,253      20            7,187 
 1489,253      20            8,077 
 1489,253      20            8,984 
 1489,253      20            9,937 
 1470,312      20            10,859 
 1469,385      20            11,64 
 1469,385      20            12,593 
 1469,385      20            13,484 
 1469,385      20            14,359 
 1469,385      20            15,265 
 1469,385      20            16,187 
 1469,385      20            17,062 
 1449,824      20            17,999 
 1449,824      20            19,046 
 1449,824      20            20,015 
 1449,824      20            20,984 
 1449,824      20            21,937 
 1449,824      20            22,89 
 1449,824      20            23,75 
 1449,824      20            24,687 
 1449,824      20            25,5 
 1449,824      20            26,39 
 1449,824      20            27,468 
 1449,824      20            28,5 
 1449,824      20            29,437 
 1449,824      20            30,296 
 1449,824      20            31,093 
 1449,824      20            31,89 
 1449,824      20            32,718 
 1449,824      20            33,64 
 1449,824      20            34,343 
 1449,824      20            35,156 
 1449,824      20            35,968 
 1449,824      20            36,781 
 1449,824      20            37,609 
 1449,824      20            38,437 
 1449,824      20            39,375 
 1449,824      20            40,187 
 1449,824      20            41,062 
 1449,824      20            41,922 
 1449,824      20            42,703 
 1449,824      20            43,547 
 1449,824      20            44,422 
 1449,824      20            45,297 
 1449,824      20            46,125 
 1449,824      20            46,984 
 1449,824      20            47,765 
 1449,824      20            48,687 
 1449,824      20            49,547 
 1449,824      20            50,516 
 1449,824      20            51,281 
 1449,824      20            52,187 
 1449,824      20            53 
 1449,824      20            54 
 1449,824      20            55 
 1449,824      20            55,812 
 1441,894      20            56,781 
 1441,894      20            57,672 
 1441,894      20            58,516 
 1441,894      20            59,422 
 1441,894      20            60,344 
 1441,894      20            61,219 
 1441,894      20            62,141 
 1441,894      20            63,109 
 1441,894      20            64,031 
 1441,894      20            65,047 
 1441,894      20            66,078 
 1441,894      20            67 
 1441,894      20            68,047 
 1441,894      20            69,016 
 1441,894      20            69,813 
 1441,894      20            70,735 
 1441,894      20            71,672 
 1441,894      20            72,516 
 1441,894      20            73,406 
 1441,894      20            74,266 
 1441,894      20            75,141 
 1441,894      20            75,875 
 1441,894      20            76,735 
 1441,894      20            77,656 
 1441,894      20            78,688 
 1441,894      20            79,485 
 1441,894      20            80,313 
 1441,894      20            81,125 
 1441,894      20            82 
 1441,894      20            82,907 
 1441,894      20            83,75 
 1441,894      20            84,891 
 1441,894      20            85,797 
 1441,894      20            86,797 
 1441,894      20            87,813 
 1441,894      20            88,688 
 1441,894      20            89,5 
 1441,894      20            90,407 
 1441,894      20            91,329 
 1441,894      20            92,204 
 1441,894      20            93,204 
 1441,894      20            94,094 
 1441,894      20            95,016 
 1441,894      20            95,938 
 1441,894      20            96,86 
 1441,894      20            97,922 
 1441,894      20            98,813 
 1441,894      20            99,688 
 1441,894      20            100,532 
 1441,894      20            101,407 
 1441,894      20            102,297 
 1441,894      20            103,188 
 1441,894      20            104,11 
 1441,894      20            104,985 
 1441,894      20            105,844 
 1441,894      20            106,782 
 1441,894      20            107,547 
 1441,894      20            108,391 
 1441,894      20            109,36 
 1441,894      20            110,219 
 1441,894      20            111,157 
 1441,894      20            112,016 
 1441,894      20            112,969 
 1441,894      20            113,798 
 1441,894      20            114,735 
 1441,894      20            115,594 
 1441,894      20            116,501 
 1441,894      20            117,376 
 1441,894      20            118,235 
 1441,894      20            119,001 
 1441,894      20            119,673 
 1441,894      20            120,563 
 1441,894      20            121,391 
 1441,894      20            122,204 
 1441,894      20            123,063 
 1441,894      20            123,923 
 1441,894      20            124,813 
 1441,894      20            125,72 
 1426,589      20            126,657 
 1426,589      20            127,563 
 1426,589      20            128,501 
 1426,589      20            129,345 
 1426,589      20            130,235 
 1426,589      20            131,235 
 1426,589      20            132,235 
 1426,589      20            133,267 
 1426,589      20            134,048 
 1426,589      20            134,907 
 1426,589      20            135,767 
 1426,589      20            136,642 
 1426,589      20            137,892 
 1426,589      20            138,814 
 1426,589      20            139,689 
 1426,589      20            140,532 
 1426,589      20            141,439 
 1426,589      20            142,314 
 1426,589      20            143,376 
 1426,589      20            144,36 
 1426,589      20            145,485 
 1426,589      20            146,548 
 1426,589      20            147,407 
 1426,589      20            148,314 
 1426,589      20            149,236 
 1426,589      20            150,157 
 1426,589      20            151,032 
 1426,589      20            151,986 
 1419,953      20            152,923 
 1419,953      20            153,829 
 1419,953      20            154,861 
 1419,953      20            155,798 
 1419,953      20            156,72 
 1419,953      20            157,689 
 1419,953      20            158,408 
 1419,953      20            159,345 
 1419,953      20            160,189 
 1419,953      20            161,017 
 1419,953      20            161,829 
 1419,953      20            162,751 
 1419,953      20            163,626 
 1419,953      20            164,564 
 1419,953      20            165,455 
 1419,953      20            166,392 
 1419,953      20            167,158 
 1419,953      20            168,251 
 1419,953      20            169,142 
 1419,953      20            170,095 
 1419,953      20            171,095 
 1419,953      20            172,142 
 1419,953      20            173,127 
 1419,953      20            173,986 
 1419,953      20            174,97 
 1419,953      20            175,877 
 1419,953      20            176,814 
 1419,953      20            177,752 
 1419,953      20            178,861 
 1419,953      20            179,674 
 1419,953      20            180,455 
 1419,953      20            181,283 
 1419,953      20            182,096 
 1419,953      20            182,877 
 1419,953      20            183,767 
 1419,953      20            184,658 
 1419,953      20            185,642 
 1419,953      20            186,471 
 1419,953      20            187,299 
 1419,953      20            188,314 
 1419,953      20            189,205 
 1419,953      20            190,002 
 1419,953      20            190,971 
 1419,953      20            192,049 
 1419,953      20            192,877 
 1419,953      20            193,846 
 1419,953      20            194,736 
 1419,953      20            195,69 
 1419,953      20            196,549 
 1419,953      20            197,533 
 1419,953      20            198,518 
 1419,953      20            199,455 
 1419,953      20            200,299 
 1419,953      20            201,408 
 1419,953      20            202,268 
 1419,953      20            203,33 
 1419,953      20            204,252 
 1419,953      20            204,987 
 1419,953      20            205,783 
 1419,953      20            206,643 
 1419,953      20            207,44 
 1419,953      20            208,409 
 1419,953      20            209,393 
 1419,953      20            210,315 
 1419,953      20            211,143 
 1419,953      20            212,065 
 1419,953      20            212,987 
 1419,953      20            213,893 
 1419,953      20            214,94 
 1419,953      20            215,877 
 1419,953      20            216,831 
 1419,953      20            217,612 
 1419,953      20            218,44 
 1419,953      20            219,377 
 1419,953      20            220,331 
 1419,953      20            221,284 
 1419,953      20            222,112 
 1419,953      20            222,909 
 1419,953      20            223,737 
 1419,953      20            224,581 
 1419,953      20            225,346 
 1419,953      20            226,174 
 1419,953      20            227,221 
 1419,953      20            228,268 
 1419,953      20            229,206 
 1419,953      20            230,081 
 1419,953      20            230,956 
 1419,953      20            231,909 
 1419,953      20            232,784 
 1419,953      20            233,69 
 1419,953      20            234,753 
 1419,953      20            235,753 
 1419,953      20            236,659 
 1419,953      20            237,55 
 1419,953      20            238,315 
 1419,953      20            239,409 
 1419,953      20            240,143 
 1419,953      20            241,065 
 1419,953      20            241,909 
 1419,953      20            242,753 
 1419,953      20            243,737 
